0
0
0
0
18
0
0
0
0
0
0
0
0
0
0
0
0
0
0
0
0
0
0
1 2 1
1 3 0
1 4 1
1 5 0
1 6 0
1 7 1
1 8 1
1 9 0
1 10 1
1 11 1
1 12 0
1 13 1
1 14 0
1 15 1
1 16 0
1 17 1
1 18 0
2 3 0
2 4 0
2 5 0
2 6 0
2 7 1
2 8 0
2 9 0
2 10 1
2 11 1
2 12 0
2 13 1
2 14 0
2 15 0
2 16 0
2 17 0
2 18 1
3 4 0
3 5 1
3 6 0
3 7 0
3 8 1
3 9 1
3 10 1
3 11 0
3 12 1
3 13 0
3 14 1
3 15 0
3 16 1
3 17 1
3 18 0
4 5 0
4 6 0
4 7 0
4 8 0
4 9 0
4 10 0
4 11 0
4 12 1
4 13 0
4 14 0
4 15 0
4 16 0
4 17 0
4 18 1
5 6 0
5 7 0
5 8 1
5 9 1
5 10 0
5 11 0
5 12 1
5 13 0
5 14 1
5 15 1
5 16 1
5 17 0
5 18 0
6 7 1
6 8 0
6 9 1
6 10 0
6 11 1
6 12 0
6 13 0
6 14 0
6 15 0
6 16 1
6 17 1
6 18 0
7 8 1
7 9 1
7 10 1
7 11 0
7 12 1
7 13 1
7 14 0
7 15 1
7 16 0
7 17 0
7 18 1
8 9 1
8 10 0
8 11 0
8 12 0
8 13 0
8 14 0
8 15 0
8 16 0
8 17 1
8 18 0
9 10 1
9 11 1
9 12 0
9 13 0
9 14 0
9 15 1
9 16 1
9 17 0
9 18 1
10 11 0
10 12 0
10 13 1
10 14 0
10 15 1
10 16 0
10 17 1
10 18 0
11 12 0
11 13 1
11 14 1
11 15 0
11 16 0
11 17 1
11 18 1
12 13 0
12 14 1
12 15 1
12 16 1
12 17 1
12 18 0
13 14 1
13 15 1
13 16 0
13 17 1
13 18 0
14 15 0
14 16 1
14 17 1
14 18 0
15 16 1
15 17 1
15 18 1
16 17 0
16 18 1
17 18 1
